
Gurobi 9.5.2 (mac64[arm]) logging started Thu Apr 27 19:53:36 2023

Set parameter LogFile to value "Java/output/iterative_model_full/scenario_seed_2_nJob_50_machineCount_1/mip_increment_1/log.txt"
Gurobi Optimizer version 9.5.2 build v9.5.2rc0 (mac64[arm])
Thread count: 8 physical cores, 8 logical processors, using up to 8 threads
Optimize a model with 2802 rows, 21338 columns and 240306 nonzeros
Model fingerprint: 0x8eb297d2
Variable types: 0 continuous, 21338 integer (21338 binary)
Coefficient statistics:
  Matrix range     [1e+00, 5e+02]
  Objective range  [2e+01, 2e+07]
  Bounds range     [1e+00, 1e+00]
  RHS range        [1e+00, 1e+00]
Found heuristic solution: objective 1.145966e+08
Presolve removed 62 rows and 894 columns
Presolve time: 0.24s
Presolved: 2740 rows, 20444 columns, 227312 nonzeros
Variable types: 0 continuous, 20444 integer (20436 binary)
Found heuristic solution: objective 8.714808e+07

Root relaxation: objective 1.503196e+04, 3950 iterations, 0.24 seconds (0.58 work units)

    Nodes    |    Current Node    |     Objective Bounds      |     Work
 Expl Unexpl |  Obj  Depth IntInf | Incumbent    BestBd   Gap | It/Node Time

     0     0 15031.9640    0   90 8.7148e+07 15031.9640   100%     -    0s
H    0     0                    4.864854e+07 15031.9640   100%     -    0s
H    0     0                    4.470446e+07 15031.9640   100%     -    0s
H    0     0                    1.081256e+07 15031.9640   100%     -    0s
H    0     0                    17376.000000 15031.9640  13.5%     -    0s
     0     0 15067.0922    0  158 17376.0000 15067.0922  13.3%     -    0s
     0     0 15067.0922    0  101 17376.0000 15067.0922  13.3%     -    1s
H    0     0                    17360.000000 15067.0922  13.2%     -    1s
H    0     0                    17104.000000 15067.0922  11.9%     -    1s
     0     0 15070.0318    0  151 17104.0000 15070.0318  11.9%     -    1s
H    0     0                    16928.000000 15070.0318  11.0%     -    1s
H    0     0                    15952.000000 15070.0318  5.53%     -    1s
     0     0 15074.3142    0  158 15952.0000 15074.3142  5.50%     -    1s
     0     0 15077.6616    0  181 15952.0000 15077.6616  5.48%     -    1s
     0     0 15077.6616    0  182 15952.0000 15077.6616  5.48%     -    1s
H    0     0                    15856.000000 15077.6616  4.91%     -    1s
H    0     0                    15824.000000 15077.6616  4.72%     -    1s
     0     0 15103.2221    0  184 15824.0000 15103.2221  4.55%     -    1s
     0     0 15105.7030    0  193 15824.0000 15105.7030  4.54%     -    1s
     0     0 15105.7030    0  185 15824.0000 15105.7030  4.54%     -    1s
H    0     0                    15792.000000 15105.7030  4.35%     -    1s
H    0     0                    15776.000000 15105.7030  4.25%     -    1s
H    0     0                    15760.000000 15105.7030  4.15%     -    1s
     0     0 15139.1886    0  239 15760.0000 15139.1886  3.94%     -    1s
H    0     0                    15728.000000 15139.1886  3.74%     -    1s
     0     0 15149.3033    0  245 15728.0000 15149.3033  3.68%     -    1s
     0     0 15151.6053    0  243 15728.0000 15151.6053  3.66%     -    1s
     0     0 15152.0620    0  244 15728.0000 15152.0620  3.66%     -    1s
     0     0 15152.1024    0  253 15728.0000 15152.1024  3.66%     -    1s
     0     0 15152.1024    0  250 15728.0000 15152.1024  3.66%     -    2s
     0     0 15162.6976    0  289 15728.0000 15162.6976  3.59%     -    2s
     0     0 15166.3349    0  321 15728.0000 15166.3349  3.57%     -    2s
     0     0 15166.9388    0  305 15728.0000 15166.9388  3.57%     -    2s
     0     0 15167.0939    0  298 15728.0000 15167.0939  3.57%     -    2s
     0     0 15167.3201    0  303 15728.0000 15167.3201  3.56%     -    2s
     0     0 15167.3433    0  313 15728.0000 15167.3433  3.56%     -    2s
     0     0 15170.6835    0  321 15728.0000 15170.6835  3.54%     -    2s
     0     0 15172.7806    0  354 15728.0000 15172.7806  3.53%     -    2s
     0     0 15172.8841    0  362 15728.0000 15172.8841  3.53%     -    2s
     0     0 15173.9214    0  352 15728.0000 15173.9214  3.52%     -    2s
     0     0 15174.1898    0  367 15728.0000 15174.1898  3.52%     -    2s
     0     0 15174.2254    0  372 15728.0000 15174.2254  3.52%     -    2s
     0     0 15176.6927    0  365 15728.0000 15176.6927  3.51%     -    2s
     0     0 15177.1221    0  357 15728.0000 15177.1221  3.50%     -    2s
     0     0 15177.2239    0  377 15728.0000 15177.2239  3.50%     -    2s
     0     0 15177.2704    0  376 15728.0000 15177.2704  3.50%     -    2s
     0     0 15179.1159    0  374 15728.0000 15179.1159  3.49%     -    2s
     0     0 15179.9007    0  384 15728.0000 15179.9007  3.48%     -    3s
     0     0 15180.0980    0  384 15728.0000 15180.0980  3.48%     -    3s
     0     0 15180.1422    0  396 15728.0000 15180.1422  3.48%     -    3s
     0     0 15181.7735    0  388 15728.0000 15181.7735  3.47%     -    3s
     0     0 15183.0404    0  397 15728.0000 15183.0404  3.46%     -    3s
     0     0 15183.3986    0  393 15728.0000 15183.3986  3.46%     -    3s
     0     0 15183.4259    0  395 15728.0000 15183.4259  3.46%     -    3s
     0     0 15184.3303    0  414 15728.0000 15184.3303  3.46%     -    3s
     0     0 15184.5653    0  429 15728.0000 15184.5653  3.46%     -    3s
     0     0 15184.6553    0  434 15728.0000 15184.6553  3.45%     -    3s
     0     0 15186.0690    0  410 15728.0000 15186.0690  3.45%     -    3s
     0     0 15186.2955    0  416 15728.0000 15186.2955  3.44%     -    3s
     0     0 15186.5636    0  402 15728.0000 15186.5636  3.44%     -    3s
     0     0 15186.6457    0  406 15728.0000 15186.6457  3.44%     -    3s
H    0     0                    15696.000000 15186.6457  3.25%     -    3s
     0     0 15188.1912    0  438 15696.0000 15188.1912  3.24%     -    3s
     0     0 15188.4368    0  433 15696.0000 15188.4368  3.23%     -    3s
     0     0 15188.7214    0  424 15696.0000 15188.7214  3.23%     -    4s
     0     0 15188.8321    0  423 15696.0000 15188.8321  3.23%     -    4s
     0     0 15194.3505    0  427 15696.0000 15194.3505  3.20%     -    4s
     0     0 15195.6374    0  437 15696.0000 15195.6374  3.19%     -    4s
     0     0 15195.8718    0  423 15696.0000 15195.8718  3.19%     -    4s
     0     0 15195.8905    0  428 15696.0000 15195.8905  3.19%     -    4s
     0     0 15196.6734    0  434 15696.0000 15196.6734  3.18%     -    4s
H    0     0                    15568.000000 15196.6734  2.39%     -    4s
     0     0 15197.1328    0  440 15568.0000 15197.1328  2.38%     -    4s
     0     0 15197.5426    0  434 15568.0000 15197.5426  2.38%     -    4s
     0     0 15197.6668    0  446 15568.0000 15197.6668  2.38%     -    4s
     0     0 15198.3858    0  459 15568.0000 15198.3858  2.37%     -    4s
     0     0 15198.9298    0  453 15568.0000 15198.9298  2.37%     -    4s
     0     0 15199.0048    0  451 15568.0000 15199.0048  2.37%     -    4s
     0     0 15200.1587    0  452 15568.0000 15200.1587  2.36%     -    4s
     0     0 15200.2550    0  467 15568.0000 15200.2550  2.36%     -    5s
     0     0 15201.3587    0  463 15568.0000 15201.3587  2.36%     -    5s
     0     0 15201.3587    0  463 15568.0000 15201.3587  2.36%     -    5s
     0     2 15201.3728    0  459 15568.0000 15201.3728  2.36%     -    5s
H   35    40                    15552.000000 15203.2664  2.24%   729    6s
H   64    70                    15536.000000 15203.2664  2.14%   745    7s
H   68    70                    15504.000000 15203.2664  1.94%   743    7s
H  109   106                    15440.000000 15203.2664  1.53%   737    8s
   179   163 15224.0467   14  384 15440.0000 15203.2664  1.53%   867   10s
   425   327 15301.2205   26  359 15440.0000 15203.2664  1.53%   727   15s

Cutting planes:
  Gomory: 1
  Cover: 5
  Clique: 160
  MIR: 158
  StrongCG: 90
  GUB cover: 99
  Zero half: 8
  Mod-K: 3
  RLT: 2

Explored 476 nodes (369118 simplex iterations) in 16.01 seconds (42.00 work units)
Thread count was 8 (of 8 available processors)

Solution count 10: 15440 15504 15536 ... 15792

Time limit reached
Best objective 1.544000000000e+04, best bound 1.521600000000e+04, gap 1.4508%

Gurobi 9.5.2 (mac64[arm]) logging started Thu Apr 27 19:53:53 2023

Set parameter LogFile to value "Java/output/iterative_model_full/scenario_seed_2_nJob_50_machineCount_1/mip_increment_1/log.txt"
Gurobi Optimizer version 9.5.2 build v9.5.2rc0 (mac64[arm])
Thread count: 8 physical cores, 8 logical processors, using up to 8 threads
Optimize a model with 2810 rows, 17952 columns and 195802 nonzeros
Model fingerprint: 0x5a043a7f
Variable types: 0 continuous, 17952 integer (17952 binary)
Coefficient statistics:
  Matrix range     [1e+00, 5e+02]
  Objective range  [3e+02, 3e+06]
  Bounds range     [1e+00, 1e+00]
  RHS range        [1e+00, 1e+00]
Found heuristic solution: objective 2.167236e+07
Presolve removed 687 rows and 1380 columns
Presolve time: 0.21s
Presolved: 2123 rows, 16572 columns, 178170 nonzeros
Variable types: 0 continuous, 16572 integer (16562 binary)
Found heuristic solution: objective 1.522786e+07

Root relaxation: objective 1.047819e+04, 3510 iterations, 0.19 seconds (0.42 work units)

    Nodes    |    Current Node    |     Objective Bounds      |     Work
 Expl Unexpl |  Obj  Depth IntInf | Incumbent    BestBd   Gap | It/Node Time

     0     0 10478.1887    0  126 1.5228e+07 10478.1887   100%     -    0s
H    0     0                    3642128.0000 10478.1887   100%     -    0s
H    0     0                    3641840.0000 10478.1887   100%     -    0s
H    0     0                    3624172.0000 10478.1887   100%     -    0s
H    0     0                    428516.00000 10478.1887  97.6%     -    0s
H    0     0                    173520.00000 10488.0950  94.0%     -    0s
     0     0 10488.0950    0  200 173520.000 10488.0950  94.0%     -    1s
H    0     0                    163864.00000 10488.0950  93.6%     -    1s
H    0     0                    163820.00000 10488.0950  93.6%     -    1s
     0     0 10488.1401    0  197 163820.000 10488.1401  93.6%     -    1s
     0     0 10492.1939    0  255 163820.000 10492.1939  93.6%     -    1s
H    0     0                    163812.00000 10492.1939  93.6%     -    1s
H    0     0                    112984.00000 10492.1939  90.7%     -    1s
     0     0 10492.9359    0  253 112984.000 10492.9359  90.7%     -    1s
     0     0 10492.9414    0  256 112984.000 10492.9414  90.7%     -    1s
     0     0 10492.9414    0  250 112984.000 10492.9414  90.7%     -    1s
     0     0 10497.9825    0  256 112984.000 10497.9825  90.7%     -    2s
     0     0 10497.9825    0  154 112984.000 10497.9825  90.7%     -    2s
H    0     0                    112968.00000 10497.9825  90.7%     -    2s
H    0     0                    112956.00000 10497.9825  90.7%     -    2s
     0     0 10497.9825    0  216 112956.000 10497.9825  90.7%     -    2s
H    0     0                    103420.00000 10497.9825  89.8%     -    2s
     0     0 10497.9825    0  254 103420.000 10497.9825  89.8%     -    2s
     0     0 10501.6446    0  255 103420.000 10501.6446  89.8%     -    2s
     0     0 10501.6804    0  258 103420.000 10501.6804  89.8%     -    2s
     0     0 10501.6804    0  258 103420.000 10501.6804  89.8%     -    2s
H    0     0                    101428.00000 10501.6804  89.6%     -    3s
H    0     0                    101408.00000 10501.6804  89.6%     -    3s
     0     0 10504.9955    0  284 101408.000 10504.9955  89.6%     -    3s
H    0     0                    101392.00000 10504.9955  89.6%     -    3s
H    0     0                    101380.00000 10504.9955  89.6%     -    3s
     0     0 10505.9859    0  256 101380.000 10505.9859  89.6%     -    3s
     0     0 10505.9920    0  262 101380.000 10505.9920  89.6%     -    3s
     0     0 10512.7755    0  299 101380.000 10512.7755  89.6%     -    3s
H    0     0                    101372.00000 10512.7755  89.6%     -    3s
     0     0 10518.0125    0  328 101372.000 10518.0125  89.6%     -    3s
     0     0 10518.7501    0  351 101372.000 10518.7501  89.6%     -    3s
     0     0 10518.8063    0  358 101372.000 10518.8063  89.6%     -    3s
     0     0 10518.8228    0  345 101372.000 10518.8228  89.6%     -    3s
     0     0 10518.8293    0  350 101372.000 10518.8293  89.6%     -    3s
H    0     0                    45352.000000 10518.8293  76.8%     -    4s
H    0     0                    39612.000000 10518.8293  73.4%     -    4s
H    0     0                    33712.000000 10518.8293  68.8%     -    4s
H    0     0                    33672.000000 10518.8293  68.8%     -    4s
     0     0 10527.0182    0  339 33672.0000 10527.0182  68.7%     -    4s
H    0     0                    33664.000000 10527.0182  68.7%     -    4s
H    0     0                    26624.000000 10527.0182  60.5%     -    4s
H    0     0                    26620.000000 10527.0182  60.5%     -    4s
     0     0 10531.7424    0  346 26620.0000 10531.7424  60.4%     -    4s
     0     0 10533.0228    0  353 26620.0000 10533.0228  60.4%     -    4s
     0     0 10533.0980    0  368 26620.0000 10533.0980  60.4%     -    4s
     0     0 10533.1280    0  362 26620.0000 10533.1280  60.4%     -    4s
H    0     0                    24472.000000 10533.1280  57.0%     -    4s
     0     0 10533.1546    0  375 24472.0000 10533.1546  57.0%     -    4s
     0     0 10533.1564    0  374 24472.0000 10533.1564  57.0%     -    4s
H    0     0                    24452.000000 10533.1564  56.9%     -    4s
H    0     0                    23480.000000 10533.1564  55.1%     -    4s
     0     0 10534.4062    0  376 23480.0000 10534.4062  55.1%     -    4s
H    0     0                    23464.000000 10534.4062  55.1%     -    4s
     0     0 10534.7955    0  377 23464.0000 10534.7955  55.1%     -    5s
     0     0 10534.7955    0  383 23464.0000 10534.7955  55.1%     -    5s
     0     0 10536.8317    0  376 23464.0000 10536.8317  55.1%     -    5s
     0     0 10537.0836    0  376 23464.0000 10537.0836  55.1%     -    5s
     0     0 10537.1573    0  417 23464.0000 10537.1573  55.1%     -    5s
     0     0 10537.2439    0  403 23464.0000 10537.2439  55.1%     -    5s
     0     0 10537.2514    0  413 23464.0000 10537.2514  55.1%     -    5s
     0     0 10538.7314    0  406 23464.0000 10538.7314  55.1%     -    5s
     0     0 10538.7522    0  412 23464.0000 10538.7522  55.1%     -    5s
H    0     0                    23432.000000 10538.7522  55.0%     -    5s
     0     0 10540.1555    0  393 23432.0000 10540.1555  55.0%     -    6s
H    0     0                    23400.000000 10540.1555  55.0%     -    6s
     0     0 10540.3437    0  426 23400.0000 10540.3437  55.0%     -    6s
     0     0 10540.3910    0  434 23400.0000 10540.3910  55.0%     -    6s
     0     0 10541.5233    0  430 23400.0000 10541.5233  55.0%     -    6s
     0     0 10541.6443    0  425 23400.0000 10541.6443  55.0%     -    6s
     0     0 10541.7275    0  426 23400.0000 10541.7275  54.9%     -    6s
     0     0 10541.7733    0  429 23400.0000 10541.7733  54.9%     -    6s
     0     0 10542.3413    0  431 23400.0000 10542.3413  54.9%     -    6s
     0     0 10542.5927    0  419 23400.0000 10542.5927  54.9%     -    6s
     0     0 10542.5979    0  434 23400.0000 10542.5979  54.9%     -    6s
     0     0 10543.5446    0  411 23400.0000 10543.5446  54.9%     -    6s
     0     0 10543.6902    0  421 23400.0000 10543.6902  54.9%     -    6s
     0     0 10543.7059    0  429 23400.0000 10543.7059  54.9%     -    6s
     0     0 10546.1577    0  419 23400.0000 10546.1577  54.9%     -    6s
H    0     0                    17580.000000 10546.1577  40.0%     -    6s
     0     0 10546.3901    0  429 17580.0000 10546.3901  40.0%     -    6s
     0     0 10546.4807    0  454 17580.0000 10546.4807  40.0%     -    6s
     0     0 10546.5062    0  449 17580.0000 10546.5062  40.0%     -    6s
     0     0 10553.1129    0  402 17580.0000 10553.1129  40.0%     -    7s
     0     0 10557.1223    0  421 17580.0000 10557.1223  39.9%     -    7s
     0     0 10557.9673    0  440 17580.0000 10557.9673  39.9%     -    7s
     0     0 10558.0035    0  450 17580.0000 10558.0035  39.9%     -    7s
     0     0 10566.0486    0  442 17580.0000 10566.0486  39.9%     -    7s
     0     0 10566.7849    0  451 17580.0000 10566.7849  39.9%     -    7s
H    0     0                    17564.000000 10566.7849  39.8%     -    7s
     0     0 10566.8565    0  462 17564.0000 10566.8565  39.8%     -    7s
     0     0 10574.3777    0  433 17564.0000 10574.3777  39.8%     -    7s
     0     0 10576.5887    0  455 17564.0000 10576.5887  39.8%     -    7s
     0     0 10576.6583    0  447 17564.0000 10576.6583  39.8%     -    7s
H    0     0                    17540.000000 10576.6583  39.7%     -    8s
     0     0 10577.2612    0  465 17540.0000 10577.2612  39.7%     -    8s
H    0     0                    17532.000000 10577.2612  39.7%     -    8s
     0     0 10577.7234    0  484 17532.0000 10577.7234  39.7%     -    8s
     0     0 10578.1733    0  386 17532.0000 10578.1733  39.7%     -    8s
     0     0 10578.2462    0  393 17532.0000 10578.2462  39.7%     -    8s
     0     0 10578.8503    0  374 17532.0000 10578.8503  39.7%     -    8s
     0     0 10578.9496    0  373 17532.0000 10578.9496  39.7%     -    8s
     0     0 10579.1288    0  462 17532.0000 10579.1288  39.7%     -    8s
     0     0 10579.1584    0  473 17532.0000 10579.1584  39.7%     -    8s
H    0     0                    17524.000000 10579.1584  39.6%     -    8s
     0     0 10579.4049    0  465 17524.0000 10579.4049  39.6%     -    8s
     0     0 10579.4049    0  457 17524.0000 10579.4049  39.6%     -    8s
     0     0 10579.4418    0  155 17524.0000 10579.4418  39.6%     -    9s
     0     0 10579.4418    0  289 17524.0000 10579.4418  39.6%     -    9s
     0     0 10579.4418    0  329 17524.0000 10579.4418  39.6%     -    9s
     0     0 10579.4418    0  365 17524.0000 10579.4418  39.6%     -    9s
     0     0 10579.4418    0  404 17524.0000 10579.4418  39.6%     -   10s
     0     0 10579.4418    0  410 17524.0000 10579.4418  39.6%     -   10s
     0     0 10579.4418    0  342 17524.0000 10579.4418  39.6%     -   10s
     0     0 10579.4418    0  350 17524.0000 10579.4418  39.6%     -   10s
     0     0 10579.4418    0  358 17524.0000 10579.4418  39.6%     -   10s
     0     0 10579.4418    0  440 17524.0000 10579.4418  39.6%     -   10s
     0     0 10579.4418    0  453 17524.0000 10579.4418  39.6%     -   10s
     0     0 10579.4418    0  456 17524.0000 10579.4418  39.6%     -   10s
     0     0 10579.4418    0  457 17524.0000 10579.4418  39.6%     -   10s
     0     0 10579.7738    0  466 17524.0000 10579.7738  39.6%     -   10s
     0     0 10579.8232    0  467 17524.0000 10579.8232  39.6%     -   10s
     0     0 10580.0340    0  458 17524.0000 10580.0340  39.6%     -   10s
     0     0 10580.0340    0  446 17524.0000 10580.0340  39.6%     -   10s
     0     2 10580.0903    0  446 17524.0000 10580.0903  39.6%     -   11s
H   34    40                    17488.000000 10583.8834  39.5%   843   12s
H   37    40                    16564.000000 10583.8834  36.1%   810   12s
H   70    75                    11816.000000 10584.3044  10.4%   698   13s
H   74    75                    11784.000000 10584.3044  10.2%   687   13s
H   74    75                    11300.000000 10584.3044  6.33%   687   13s
H  203   167                    10888.000000 10584.3044  2.79%   469   14s
   204   175 10766.6200   20  115 10888.0000 10584.3044  2.79%   472   15s
H  229   190                    10884.000000 10584.3044  2.75%   451   15s

Cutting planes:
  Gomory: 1
  Cover: 5
  Clique: 71
  MIR: 130
  StrongCG: 62
  GUB cover: 113
  Zero half: 13
  RLT: 2

Explored 441 nodes (214384 simplex iterations) in 16.01 seconds (34.04 work units)
Thread count was 8 (of 8 available processors)

Solution count 10: 10884 10888 11300 ... 17540

Time limit reached
Best objective 1.088400000000e+04, best bound 1.058800000000e+04, gap 2.7196%

Gurobi 9.5.2 (mac64[arm]) logging started Thu Apr 27 19:54:09 2023

Set parameter LogFile to value "Java/output/iterative_model_full/scenario_seed_2_nJob_50_machineCount_1/mip_increment_1/log.txt"
Gurobi Optimizer version 9.5.2 build v9.5.2rc0 (mac64[arm])
Thread count: 8 physical cores, 8 logical processors, using up to 8 threads
Optimize a model with 2820 rows, 14551 columns and 175243 nonzeros
Model fingerprint: 0x8db882ed
Variable types: 0 continuous, 14551 integer (14551 binary)
Coefficient statistics:
  Matrix range     [1e+00, 5e+02]
  Objective range  [2e+02, 4e+05]
  Bounds range     [1e+00, 1e+00]
  RHS range        [1e+00, 1e+00]
Presolve removed 1255 rows and 1702 columns
Presolve time: 0.18s
Presolved: 1565 rows, 12849 columns, 151099 nonzeros
Variable types: 0 continuous, 12849 integer (12833 binary)

Root relaxation: objective 4.745215e+03, 6471 iterations, 0.43 seconds (1.00 work units)

    Nodes    |    Current Node    |     Objective Bounds      |     Work
 Expl Unexpl |  Obj  Depth IntInf | Incumbent    BestBd   Gap | It/Node Time

     0     0 4745.21490    0  133          - 4745.21490      -     -    0s
     0     0 4750.15531    0  295          - 4750.15531      -     -    1s
     0     0 4751.11685    0  282          - 4751.11685      -     -    1s
     0     0 4751.11685    0  287          - 4751.11685      -     -    1s
     0     0 4751.95201    0  313          - 4751.95201      -     -    1s
     0     0 4752.28251    0  365          - 4752.28251      -     -    2s
     0     0 4752.32694    0  347          - 4752.32694      -     -    2s
     0     0 4752.32750    0  359          - 4752.32750      -     -    2s
     0     0 4755.78936    0  350          - 4755.78936      -     -    2s
     0     0 4756.77578    0  374          - 4756.77578      -     -    2s
     0     0 4756.88102    0  371          - 4756.88102      -     -    2s
     0     0 4756.88789    0  375          - 4756.88789      -     -    2s
     0     0 4756.88835    0  379          - 4756.88835      -     -    2s
     0     0 4757.87048    0  394          - 4757.87048      -     -    3s
     0     0 4757.94275    0  394          - 4757.94275      -     -    3s
     0     0 4757.94934    0  385          - 4757.94934      -     -    3s
     0     0 4757.94934    0  384          - 4757.94934      -     -    3s
     0     0 4758.50026    0  417          - 4758.50026      -     -    3s
     0     0 4758.58125    0  414          - 4758.58125      -     -    3s
     0     0 4758.60000    0  420          - 4758.60000      -     -    3s
     0     0 4758.60219    0  423          - 4758.60219      -     -    3s
     0     0 4759.01383    0  433          - 4759.01383      -     -    4s
     0     0 4759.20511    0  444          - 4759.20511      -     -    4s
     0     0 4759.25680    0  456          - 4759.25680      -     -    4s
     0     0 4759.25785    0  455          - 4759.25785      -     -    4s
     0     0 4759.81180    0  443          - 4759.81180      -     -    4s
     0     0 4759.91927    0  435          - 4759.91927      -     -    4s
     0     0 4759.92348    0  441          - 4759.92348      -     -    4s
     0     0 4760.34121    0  422          - 4760.34121      -     -    4s
     0     0 4760.50697    0  448          - 4760.50697      -     -    4s
     0     0 4760.51977    0  456          - 4760.51977      -     -    5s
     0     0 4760.52309    0  455          - 4760.52309      -     -    5s
     0     0 4760.83999    0  450          - 4760.83999      -     -    5s
     0     0 4760.90188    0  458          - 4760.90188      -     -    5s
     0     0 4760.90640    0  456          - 4760.90640      -     -    5s
     0     0 4761.53459    0  464          - 4761.53459      -     -    5s
     0     0 4761.60243    0  477          - 4761.60243      -     -    5s
     0     0 4761.61283    0  474          - 4761.61283      -     -    5s
     0     0 4761.61798    0  473          - 4761.61798      -     -    5s
     0     0 4762.07019    0  456          - 4762.07019      -     -    6s
     0     0 4762.09485    0  483          - 4762.09485      -     -    6s
     0     0 4762.11437    0  473          - 4762.11437      -     -    6s
     0     0 4762.12148    0  487          - 4762.12148      -     -    6s
H    0     0                    384487.00000 4762.34067  98.8%     -    6s
H    0     0                    381304.00000 4762.34067  98.8%     -    6s
     0     0 4762.34067    0  467 381304.000 4762.34067  98.8%     -    6s
H    0     0                    366304.00000 4762.34067  98.7%     -    6s
     0     0 4762.35109    0  472 366304.000 4762.35109  98.7%     -    6s
     0     0 4762.35242    0  473 366304.000 4762.35242  98.7%     -    6s
     0     0 4762.55491    0  487 366304.000 4762.55491  98.7%     -    6s
H    0     0                    361053.00000 4762.55491  98.7%     -    7s
     0     0 4762.58019    0  497 361053.000 4762.58019  98.7%     -    7s
     0     0 4762.58080    0  498 361053.000 4762.58080  98.7%     -    7s
     0     0 4762.95674    0  485 361053.000 4762.95674  98.7%     -    7s
H    0     0                    113287.00000 4762.95674  95.8%     -    7s
     0     0 4762.97452    0  488 113287.000 4762.97452  95.8%     -    7s
     0     0 4762.98224    0  492 113287.000 4762.98224  95.8%     -    7s
     0     0 4763.10724    0  456 113287.000 4763.10724  95.8%     -    7s
     0     0 4763.12105    0  466 113287.000 4763.12105  95.8%     -    8s
     0     0 4763.12618    0  468 113287.000 4763.12618  95.8%     -    8s
H    0     0                    93953.000000 4763.12618  94.9%     -    8s
     0     0 4763.32636    0  485 93953.0000 4763.32636  94.9%     -    8s
     0     0 4763.35488    0  475 93953.0000 4763.35488  94.9%     -    8s
     0     0 4763.37494    0  488 93953.0000 4763.37494  94.9%     -    8s
     0     0 4763.37499    0  505 93953.0000 4763.37499  94.9%     -    8s
     0     0 4763.43844    0  510 93953.0000 4763.43844  94.9%     -    8s
     0     0 4763.46610    0  520 93953.0000 4763.46610  94.9%     -    8s
     0     0 4763.46910    0  515 93953.0000 4763.46910  94.9%     -    8s
     0     0 4763.68933    0  505 93953.0000 4763.68933  94.9%     -    9s
     0     0 4763.69513    0  498 93953.0000 4763.69513  94.9%     -    9s
     0     0 4763.76342    0  520 93953.0000 4763.76342  94.9%     -    9s
     0     0 4763.76342    0  517 93953.0000 4763.76342  94.9%     -    9s
     0     2 4763.78602    0  514 93953.0000 4763.78602  94.9%     -   10s
H   32    40                    88059.000000 4764.03573  94.6%   918   14s
    39    48 4767.25604    5  477 88059.0000 4764.03573  94.6%   874   15s

Cutting planes:
  Gomory: 2
  Cover: 5
  Clique: 134
  MIR: 84
  StrongCG: 35
  GUB cover: 101
  Zero half: 8
  RLT: 3
  Relax-and-lift: 2

Explored 65 nodes (109561 simplex iterations) in 16.01 seconds (43.50 work units)
Thread count was 8 (of 8 available processors)

Solution count 7: 88059 93953 113287 ... 384487

Time limit reached
Best objective 8.805900000000e+04, best bound 4.764073992558e+03, gap 94.5899%
